p tw 46 53
1 2
2 13
3 4
4 5
5 6
6 7
7 8
8 9
9 10
9 22
10 11
11 12
11 22
12 14
13 24
14 15
14 19
15 16
16 17
17 18
18 3
19 20
20 21
21 3
22 23
23 25
24 35
25 26
25 37
26 27
27 28
27 32
28 29
29 30
29 32
30 31
31 34
32 33
33 34
34 36
35 42
36 40
37 38
38 39
39 40
40 41
42 43
43 44
43 37
44 45
44 37
45 46
46 3
